WARNING: for repeatability, setting FPU to use double precision
============================[ Problem Statistics ]=============================
|                                                                             |
|  Number of variables:           100                                         |
|  Number of clauses:             449                                         |
|  Parse time:                   0.00 s                                       |
|  Eliminated clauses:           0.00 Mb                                      |
|  Simplification time:          0.00 s                                       |
|                                                                             |
============================[ Search Statistics ]==============================
| Conflicts |          ORIGINAL         |          LEARNT          | Progress |
|           |    Vars  Clauses Literals |    Limit  Clauses Lit/Cl |          |
===============================================================================
|       100 |      98      447     1355 |      163      100      7 |  0.010 % |
===============================================================================
restarts              : 3
conflicts             : 213            (85064 /sec)
decisions             : 270            (0.00 % random) (107827 /sec)
propagations          : 4666           (1863419 /sec)
conflict literals     : 1322           (16.49 % deleted)
Memory used           : 13.00 MB
CPU time              : 0.002504 s

SATISFIABLE
